NAME : tsp_174_sol.txt
COMMENT : OR-Tools Guided Local Search
TYPE : TOUR
DIMENSION : 50
COST : 5560
STATUS : ROUTING_SUCCESS
GAP : 0.00% (Reference Solution)
TOUR_SECTION
1
46
26
25
48
42
9
28
3
24
8
15
13
50
31
34
49
5
43
40
21
41
20
36
38
35
6
37
32
29
12
7
45
47
33
30
14
10
19
17
2
4
18
23
22
11
39
16
44
27
-1
